CMD:
./solvers/bin/cadical --plain --no-reduce -t 1600 ./data/cnfs//cmugigamax/cmugigamax.40.cnf

c --- [ banner ] -------------------------------------------------------------
c 
c CaDiCaL SAT Solver
c Copyright (c) 2016-2024
c A. Biere, M. Fleury, N. Froleyks, K. Fazekas, F. Pollitt, T. Faller
c JKU Linz, University of Freiburg, TU Wien
c 
c Version 2.1.3 5296d3d2a9bf48c154ab2acb5e44625776d821bf
c g++ (Gentoo 12.3.1_p20230526 p2) 12.3.1 20230526 -Wall -Wextra -O3 -DNDEBUG
c Sat Aug 9 07:26:21 PDT 2025 Linux cedar2.int.cedar.computecanada.ca 5.14.0-362.24.2.el9_3.x86_64 x86_64
c 
c --- [ limit ] --------------------------------------------------------------
c 
c setting time limit to 1600 seconds real time (due to '-t 1600')
c 
c --- [ parsing input ] ------------------------------------------------------
c 
c reading DIMACS file from './data/cnfs//cmugigamax/cmugigamax.40.cnf'
c opening file to read './data/cnfs//cmugigamax/cmugigamax.40.cnf'
c found 'p cnf 26709 75797' header
c parsed 75797 clauses in 0.01 seconds process time
c 
c --- [ options ] ------------------------------------------------------------
c 
c   --compact=false                (different from default 'true')
c   --decompose=false              (different from default 'true')
c   --deduplicate=false            (different from default 'true')
c   --elim=false                   (different from default 'true')
c   --probe=false                  (different from default 'true')
c   --reduce=false                 (different from default 'true')
c   --subsume=false                (different from default 'true')
c   --ternary=false                (different from default 'true')
c   --transred=false               (different from default 'true')
c   --vivify=false                 (different from default 'true')
c 
c --- [ solving ] ------------------------------------------------------------
c 
c time measured in process time since initialization
c 
c  seconds  reductions  redundant  irredundant
c         MB    restarts       trail      variables
c          level   conflicts       glue        remaining
c 
c *  0.01 15  0 0   0    0    0  0% 0 74375 23844 89%
c {  0.01 16  0 0   0    0    0  0% 0 74375 23844 89%
c i  0.01 16 22 0   0   11    7 12% 1 74375 23843 89%
c i  0.01 16 23 0   0   16   11 13% 1 74375 23838 89%
c i  0.01 16 23 0   0   17   11 13% 1 74375 23837 89%
c i  0.01 16 24 0   0   23   15 13% 1 74375 23833 89%
c i  0.01 16 27 0   0   29   19 13% 1 74375 23832 89%
c i  0.01 16 28 0   0   33   22 14% 1 74375 23831 89%
c i  0.01 16 28 0   0   34   22 14% 1 74375 23829 89%
c i  0.01 16 28 0   0   49   29 14% 1 74375 23768 89%
c i  0.01 16 28 0   0   50   29 14% 1 74375 23754 89%
c i  0.01 16 25 0   1   58   35 14% 1 74375 23750 89%
c i  0.02 16 23 0   4   71   46 14% 1 74375 23745 89%
c i  0.02 16 23 0   7   78   50 14% 1 74375 23740 89%
c i  0.02 16 21 0  10   87   58 14% 1 74375 23713 89%
c i  0.02 16 20 0  11   92   62 14% 1 74375 23710 89%
c i  0.02 16 20 0  11  105   71 14% 1 74375 23708 89%
c i  0.02 16 21 0  11  114   78 14% 1 74375 23705 89%
c i  0.02 16 21 0  11  121   80 14% 1 74375 23702 89%
c i  0.02 16 21 0  11  122   80 14% 1 74375 23699 89%
c 
c  seconds  reductions  redundant  irredundant
c         MB    restarts       trail      variables
c          level   conflicts       glue        remaining
c 
c i  0.02 16 21 0  11  129   86 14% 1 74375 23695 89%
c i  0.02 16 21 0  11  139   94 14% 1 74375 23693 89%
c i  0.02 16 22 0  11  143   97 15% 1 74375 23691 89%
c i  0.02 16 23 0  11  150  101 15% 1 74375 23690 89%
c i  0.02 16 26 0  14  175  124 15% 2 74375 23687 89%
c i  0.02 16 23 0  19  196  143 15% 2 74375 23684 89%
c i  0.02 16 23 0  20  200  145 15% 2 74375 23285 87%
c i  0.02 16 23 0  21  201  145 15% 2 74375 23263 87%
c i  0.02 16 22 0  22  211  154 15% 2 74375 23262 87%
c i  0.02 16 21 0  23  221  162 15% 2 74375 23261 87%
c i  0.02 16 20 0  25  231  167 15% 2 74375 23237 87%
c i  0.02 16 20 0  25  232  167 15% 2 74375 23233 87%
c i  0.02 16 19 0  26  250  180 15% 2 74375 23232 87%
c i  0.02 16 19 0  27  277  202 15% 2 74375 23219 87%
c i  0.02 16 19 0  27  278  202 15% 2 74375 23216 87%
c i  0.02 16 19 0  27  286  207 15% 2 74375 23215 87%
c i  0.02 16 20 0  27  297  215 15% 2 74375 23213 87%
c i  0.02 16 21 0  27  304  219 15% 2 74375 23212 87%
c i  0.02 16 24 0  27  336  245 16% 2 74375 23210 87%
c i  0.02 16 25 0  27  343  249 16% 2 74375 23209 87%
c 
c  seconds  reductions  redundant  irredundant
c         MB    restarts       trail      variables
c          level   conflicts       glue        remaining
c 
c i  0.02 16 28 0  27  375  275 17% 2 74375 23207 87%
c i  0.02 16 29 0  27  382  279 17% 2 74375 23206 87%
c i  0.02 16 32 0  27  414  305 18% 2 74375 23204 87%
c i  0.02 16 33 0  27  421  309 18% 2 74375 23203 87%
... skipped 231 lines ...
c i  0.06 16 215 0  27 1919 1420 61% 2 74375 22531 84%
c i  0.06 16 215 0  27 1925 1423 61% 2 74375 22523 84%
c i  0.06 16 214 0  27 1929 1425 61% 2 74375 22520 84%
c i  0.06 16 214 0  27 1952 1441 61% 2 74375 22497 84%
c i  0.06 16 214 0  27 1968 1454 60% 2 74375 22489 84%
c i  0.06 16 213 0  27 1975 1460 60% 2 74375 22485 84%
c i  0.06 16 213 0  27 1997 1479 60% 2 74375 22476 84%
c i  0.06 16 212 0  27 2000 1481 60% 2 74375 22473 84%
c i  0.06 16 211 0  27 2025 1501 60% 2 74375 22463 84%
c i  0.06 16 211 0  27 2039 1511 60% 2 74375 22440 84%
c 
c  seconds   reductions  redundant  irredundant
c         MB     restarts       trail      variables
c           level   conflicts       glue        remaining
c 
c i  0.06 16 209 0  28 2059 1529 59% 2 74375 22390 84%
c i  0.06 16 207 0  28 2067 1536 59% 2 74375 22152 83%
c i  0.06 16 206 0  28 2073 1540 59% 2 74375 22130 83%
c i  0.06 16 206 0  28 2074 1540 59% 2 74375 22129 83%
c i  0.06 16 206 0  28 2075 1540 59% 2 74375 22124 83%
c i  0.06 16 206 0  28 2076 1540 59% 2 74375 22123 83%
c i  0.06 16 205 0  28 2077 1540 59% 2 74375 22118 83%
c i  0.06 16 205 0  28 2079 1541 59% 2 74375 22097 83%
c i  0.06 16 205 0  28 2081 1541 59% 2 74375 22092 83%
c i  0.06 16 204 0  28 2082 1541 59% 2 74375 22074 83%
c i  0.06 16 202 0  28 2101 1558 58% 2 74375 22071 83%
c i  0.07 16 211 0  28 2215 1657 59% 2 74375 22068 83%
c i  0.07 16 212 0  28 2273 1693 59% 2 74375 22065 83%
c i  0.07 16 212 0  28 2274 1693 59% 2 74375 22062 83%
c i  0.07 16 212 0  28 2279 1697 59% 2 74375 22059 83%
c i  0.07 16 212 0  28 2287 1700 59% 2 74375 22049 83%
c i  0.07 16 214 0  28 2304 1710 60% 2 74375 22027 82%
c i  0.07 16 214 0  28 2312 1716 59% 2 74375 22024 82%
c i  0.07 16 213 0  28 2321 1724 59% 2 74375 22022 82%
c i  0.08 16 214 0  28 2351 1750 59% 2 74375 22012 82%
c 
c  seconds   reductions  redundant  irredundant
c         MB     restarts       trail      variables
c           level   conflicts       glue        remaining
c 
c i  0.08 16 196 0  28 2573 1930 56% 2 74375 22003 82%
c i  0.08 16 195 0  28 2591 1946 56% 2 74375 22000 82%
c i  0.08 17 195 0  28 2595 1949 56% 2 74375 21998 82%
c i  0.08 17 195 0  28 2599 1951 56% 2 74375 21995 82%
c i  0.09 17 191 0  28 2633 1983 56% 2 74375 21992 82%
c i  0.09 17 189 0  28 2653 2000 55% 2 74375 21989 82%
c ]  0.09 17 187 0  28 2679 2023 55% 2 74375 21865 82%
c 0  0.09 17 187 0  28 2679 2023 55% 2 74375 21865 82%
c 
c --- [ result ] -------------------------------------------------------------
c 
s UNSATISFIABLE
c 
c --- [ run-time profiling ] -------------------------------------------------
c 
c process time taken by individual solving procedures
c (percentage relative to process time for solving)
c 
c         0.07   99.88% search
c         0.06   75.64% stable
c         0.02   23.98% unstable
c         0.01   17.89% parse
c         0.00    0.22% lucky
c         0.00    0.00% simplify
c   =================================
c         0.07   84.47% solve
c 
c last line shows process time for solving
c (percentage relative to total process time)
c 
c --- [ statistics ] ---------------------------------------------------------
c 
c chronological:              1538        57.41 %  of conflicts
c conflicts:                  2679     36499.13    per second
c decisions:                 10088    137440.56    per second
c fixed:                      4844        18.14 %  of all variables
c learned:                    2452        91.53 %  per conflict
c learned_lits:              13133       100.00 %  learned literals
c minimized:                     0         0.00 %  learned literals
c shrunken:                   2061        15.69 %  learned literals
c minishrunken:                858         6.53 %  learned literals
c otfs:                        172         6.42 %  of conflict
c propagations:             743102        10.12 M  per second
c rephased:                      1      2679.00    interval
c restarts:                     28        95.68    interval
c stabilizing:                   1        62.67 %  of conflicts
c subsumed:                    147         0.19 %  of all clauses
c strengthened:                172         0.22 %  of all clauses
c 
c seconds are measured in process time for solving
c 
c --- [ resources ] ----------------------------------------------------------
c 
c total process time since initialization:         0.09    seconds
c total real time since initialization:            0.09    seconds
c maximum resident set size of process:           30.84    MB
c 
c --- [ shutting down ] ------------------------------------------------------
c 
c exit 20
